10 10 3

0 261 170 203 134 176 125 479 258 472 
284 0 496 357 433 440 218 287 92 318 
191 264 0 362 404 350 372 199 121 130 
129 430 465 0 392 398 135 302 238 261 
377 216 226 105 0 206 428 168 138 123 
92 375 165 360 272 0 135 222 382 191 
300 81 263 380 367 192 0 345 465 296 
186 266 484 153 350 406 85 0 405 318 
219 72 406 292 322 487 163 181 0 259 
455 109 347 146 360 378 359 446 451 0 

246 0 4
246 1 0
246 2 3
246 3 5
246 4 3
246 5 7
246 6 7
246 7 0
246 8 7
246 9 5

